maximize
OBJ:100x0 + 100x1 + 100x2 + 100x3 + 100x4 + 100x5 + 100x6 + 100x7 + 100x8 + 100x9 + 100x10 + 100x11 + 100x12 + 100x13 + 100x14 + 100x15 + 100x16 + 100x17 + 100x18 + 100x19 + 100x20 + 100x21 + 100x22 + 100x23 + 100x24 + 100x25 + 100x26 + 100x27 + 100x28 + 100x29 + 100x30 + 100x31 + 100x32 + 100x33 + 100x34 + 100x35 + 100x36 + 100x37 + 100x38 + 100x39 + 100x40 + 100x41 + 100x42 + 100x43 + 100x44 + 100x45 + 100x46 + 100x47 + 100x48 + 100x49 + 100x50 + 100x51 + 100x52 + 100x53 + 100x54 + 100x55 + 100x56 + 100x57 + 100x58 + 100x59 + 100x60 + 100x61 + 100x62 + 100x63 + 100x64 + 100x65 + 100x66 - y15_21 - y36_53 - y47_53 - y7_26 - y36_62 - y26_39 - y28_58 - y47_62 - y18_44 - y29_50 - y48_63 - y21_46 - y6_57 - y29_59 - y10_36 - y41_51 - y25_34 - y10_45 - y2_50 - y3_15 - y14_15 - y3_24 - y14_33 - y24_65 - y3_42 - y14_51 - y36_48 - y55_61 - y7_21 - y36_57 - y18_30 - y9_49 - y17_62 - y29_36 - y21_32 - y48_58 - y21_41 - y6_52 - y40_54 - y21_59 - y10_22 - y10_31 - y25_29 - y54_65 - y33_42 - y2_36 - y10_49 - y2_45 - y10_58 - y22_23 - y51_59 - y3_19 - y14_19 - y22_32 - y43_55 - y14_28 - y32_64 - y24_60 - y3_37 - y14_37 - y16_56 - y36_43 - y17_39 - y36_52 - y55_65 - y6_29 - y29_31 - y29_40 - y29_49 - y40_49 - y6_56 - y40_58 - y10_17 - y62_64 - y2_22 - y10_44 - y12_63 - y32_41 - y2_49 - y51_63 - y14_23 - y32_59 - y13_55 - y16_51 - y24_64 - y35_64 - y16_60 - y7_11 - y9_30 - y55_60 - y5_41 - y5_50 - y17_52 - y28_52 - y9_66 - y21_31 - y10_12 - y10_21 - y39_57 - y10_30 - y39_66 - y2_26 - y12_58 - y32_36 - y13_32 - y3_9 - y51_58 - y32_54 - y43_54 - y24_50 - y13_59 - y24_59 - y1_66 - y5_36 - y28_47 - y50_53 - y5_63 - y6_28 - y58_66 - y21_26 - y42_58 - y21_35 - y39_43 - y2_3 - y10_16 - y2_12 - y31_57 - y54_59 - y12_53 - y2_30 - y4_49 - y32_40 - y35_36 - y16_32 - y1_43 - y13_45 - y9_11 - y16_59 - y5_49 - y9_47 - y5_58 - y58_61 - y6_32 - y8_51 - y27_64 - y19_60 - y30_60 - y42_62 - y11_56 - y0_65 - y10_11 - y11_65 - y2_7 - y39_56 - y20_52 - y31_52 - y23_57 - y13_22 - y4_53 - y4_62 - y43_53 - y16_36 - y5_8 - y49_51 - y5_26 - y49_60 - y5_35 - y5_44 - y6_9 - y27_41 - y6_18 - y27_59 - y19_55 - y42_57 - y42_66 - y39_42 - y12_25 - y23_25 - y20_38 - y12_34 - y31_47 - y23_52 - y13_17 - y4_48 - y12_61 - y13_26 - y23_61 - y24_26 - y32_39 - y24_35 - y4_66 - y1_42 - y13_44 - y35_44 - y16_40 - y1_51 - y5_12 - y38_46 - y17_23 - y5_30 - y26_62 - y18_58 - y6_13 - y8_32 - y19_41 - y8_50 - y11_46 - y8_59 - y42_61 - y0_55 - y12_29 - y20_51 - y23_47 - y1_10 - y12_56 - y23_56 - y53_57 - y53_66 - y4_61 - y22_60 - y45_62 - y1_37 - y37_58 - y5_7 - y5_16 - y46_54 - y46_63 - y57_63 - y18_53 - y27_31 - y50_51 - y0_32 - y30_45 - y11_41 - y19_54 - y60_64 - y0_59 - y23_24 - y33_65 - y44_65 - y23_42 - y4_38 - y34_57 - y1_32 - y34_66 - y45_66 - y56_66 - y3_60 - y46_49 - y15_43 - y26_43 - y38_45 - y57_58 - y26_52 - y8_13 - y19_22 - y0_18 - y7_66 - y19_31 - y0_27 - y11_27 - y63_65 - y8_49 - y30_49 - y11_45 - y0_54 - y11_54 - y41_55 - y23_28 - y41_64 - y25_56 - y22_41 - y53_65 - y3_46 - y14_46 - y34_61 - y37_57 - y15_29 - y5_6 - y7_25 - y18_25 - y15_38 - y26_38 - y7_43 - y15_56 - y7_52 - y8_17 - y0_22 - y29_58 - y19_35 - y8_44 - y19_44 - y11_49 - y33_46 - y12_23 - y52_59 - y33_55 - y3_32 - y14_41 - y34_56 - y45_56 - y18_20 - y7_29 - y7_38 - y18_38 - y15_51 - y18_47 - y7_56 - y8_21 - y19_21 - y0_17 - y29_62 - y40_62 - y41_45 - y33_41 - y25_46 - y33_59 - y25_55 - y10_66 - y22_31 - y3_27 - y34_42 - y37_38 - y14_45 - y37_47 - y22_58 - y3_54 - y14_54 - y3_63 - y14_63 - y15_28 - y26_28 - y15_37 - y7_33 - y26_46 - y17_65 - y29_39 - y48_52 - y11_12 - y48_61 - y21_44 - y21_53 - y4_9 - y41_58 - y52_58 - y3_13 - y22_26 - y22_35 - y2_66 - y3_31 - y3_40 - y3_49 - y15_23 - y18_19 - y36_55 - y28_51 - y7_28 - y36_64 - y28_60 - y7_37 - y8_11 - y29_43 - y21_39 - y6_50 - y48_65 - y29_61 - y10_29 - y25_27 - y10_47 - y10_56 - y51_57 - y3_17 - y22_30 - y3_26 - y43_62 - y22_39 - y3_35 - y3_44 - y36_41 - y18_23 - y36_59 - y47_59 - y5_53 - y5_62 - y17_64 - y0_2 - y29_47 - y21_43 - y40_56 - y21_61 - y10_33 - y2_38 - y51_52 - y3_12 - y32_48 - y43_57 - y32_66 - y7_9 - y36_45 - y36_54 - y9_37 - y17_50 - y47_63 - y17_59 - y9_55 - y5_66 - y29_33 - y6_40 - y2_6 - y10_28 - y2_24 - y31_60 - y10_37 - y25_35 - y12_65 - y3_7 - y32_43 - y51_56 - y13_39 - y3_16 - y14_16 - y32_52 - y13_48 - y51_65 - y24_57 - y17_18 - y13_66 - y24_66 - y35_66 - y28_36 - y9_32 - y47_58 - y28_54 - y21_33 - y42_65 - y10_14 - y39_50 - y31_55 - y10_32 - y12_51 - y54_66 - y12_60 - y23_60 - y2_37 - y13_34 - y32_47 - y51_60 - y35_43 - y16_39 - y13_52 - y1_59 - y16_57 - y5_20 - y9_27 - y5_38 - y28_40 - y50_55 - y27_62 - y61_64 - y6_39 - y19_58 - y42_60 - y39_45 - y2_5 - y31_41 - y12_46 - y23_55 - y13_20 - y23_64 - y16_25 - y1_36 - y13_38 - y43_51 - y16_34 - y24_47 - y5_15 - y65_66 - y9_13 - y36_39 - y9_22 - y17_35 - y15_65 - y9_40 - y6_25 - y42_46 - y27_57 - y19_53 - y30_53 - y42_55 - y19_62 - y20_36 - y31_36 - y39_49 - y23_32 - y20_45 - y23_41 - y2_18 - y20_54 - y31_54 - y12_50 - y13_24 - y1_22 - y4_55 - y16_20 - y53_60 - y32_46 - y43_46 - y38_44 - y46_57 - y9_17 - y28_30 - y46_66 - y9_26 - y15_60 - y5_37 - y26_60 - y49_62 - y6_11 - y27_43 - y30_48 - y8_57 - y42_59 - y11_53 - y39_44 - y12_27 - y12_36 - y12_45 - y20_58 - y12_54 - y1_26 - y24_28 - y45_60 - y1_35 - y38_39 - y5_14 - y57_61 - y26_55 - y38_57 - y7_51 - y38_66 - y27_38 - y8_34 - y19_34 - y8_43 - y30_43 - y27_56 - y11_39 - y42_45 - y8_52 - y19_52 - y30_52 - y19_61 - y20_26 - y0_66 - y31_44 - y23_40 - y12_49 - y1_12 - y23_49 - y4_45 - y34_46 - y4_54 - y34_55 - y1_30 - y37_51 - y56_64 - y37_60 - y46_56 - y9_16 - y26_50 - y49_52 - y7_55 - y18_55 - y7_64 - y8_29 - y19_29 - y8_38 - y19_38 - y30_38 - y0_34 - y42_49 - y0_43 - y0_52 - y12_17 - y20_30 - y12_26 - y33_58 - y44_58 - y10_65 - y22_48 - y34_50 - y45_50 - y37_55 - y14_62 - y15_27 - y26_27 - y37_64 - y15_54 - y26_54 - y18_50 - y7_59 - y19_24 - y27_37 - y11_20 - y19_33 - y11_29 - y30_42 - y0_38 - y19_51 - y30_51 - y60_61 - y12_21 - y41_57 - y52_66 - y33_62 - y1_11 - y2_65 - y34_45 - y34_54 - y45_63 - y56_63 - y7_27 - y59_65 - y38_42 - y7_36 - y15_49 - y26_58 - y18_54 - y48_55 - y11_15 - y19_28 - y11_24 - y0_42 - y41_43 - y33_39 - y12_16 - y44_48 - y52_61 - y4_21 - y33_57 - y44_57 - y2_51 - y2_60 - y45_49 - y3_43 - y45_58 - y37_54 - y22_65 - y7_13 - y15_26 - y55_62 - y17_63 - y18_40 - y7_49 - y8_14 - y29_46 - y40_46 - y11_19 - y40_55 - y11_28 - y40_64 - y63_66 - y41_47 - y25_30 - y33_43 - y4_16 - y10_50 - y10_59 - y44_61 - y22_33 - y22_42 - y34_44 - y3_38 - y37_40 - y22_51 - y7_8 - y14_56
 Subject to
C1: x0+x2-y0_2 <=1 
C2: x0+x10 <=1 
C3: x0+x13 <=1 
C4: x0+x14 <=1 
C5: x0+x17-y0_17 <=1 
C6: x0+x18-y0_18 <=1 
C7: x0+x19 <=1 
C8: x0+x22-y0_22 <=1 
C9: x0+x23 <=1 
C10: x0+x24 <=1 
C11: x0+x25 <=1 
C12: x0+x27-y0_27 <=1 
C13: x0+x28 <=1 
C14: x0+x32-y0_32 <=1 
C15: x0+x33 <=1 
C16: x0+x34-y0_34 <=1 
C17: x0+x38-y0_38 <=1 
C18: x0+x41 <=1 
C19: x0+x42-y0_42 <=1 
C20: x0+x43-y0_43 <=1 
C21: x0+x44 <=1 
C22: x0+x47 <=1 
C23: x0+x48 <=1 
C24: x0+x49 <=1 
C25: x0+x51 <=1 
C26: x0+x52-y0_52 <=1 
C27: x0+x53 <=1 
C28: x0+x54-y0_54 <=1 
C29: x0+x55-y0_55 <=1 
C30: x0+x56 <=1 
C31: x0+x57 <=1 
C32: x0+x59-y0_59 <=1 
C33: x0+x62 <=1 
C34: x0+x63 <=1 
C35: x0+x65-y0_65 <=1 
C36: x0+x66-y0_66 <=1 
C37: x1+x4 <=1 
C38: x1+x5 <=1 
C39: x1+x10-y1_10 <=1 
C40: x1+x11-y1_11 <=1 
C41: x1+x12-y1_12 <=1 
C42: x1+x17 <=1 
C43: x1+x18 <=1 
C44: x1+x19 <=1 
C45: x1+x22-y1_22 <=1 
C46: x1+x25 <=1 
C47: x1+x26-y1_26 <=1 
C48: x1+x29 <=1 
C49: x1+x30-y1_30 <=1 
C50: x1+x32-y1_32 <=1 
C51: x1+x33 <=1 
C52: x1+x34 <=1 
C53: x1+x35-y1_35 <=1 
C54: x1+x36-y1_36 <=1 
C55: x1+x37-y1_37 <=1 
C56: x1+x38 <=1 
C57: x1+x41 <=1 
C58: x1+x42-y1_42 <=1 
C59: x1+x43-y1_43 <=1 
C60: x1+x45 <=1 
C61: x1+x47 <=1 
C62: x1+x48 <=1 
C63: x1+x49 <=1 
C64: x1+x51-y1_51 <=1 
C65: x1+x55 <=1 
C66: x1+x56 <=1 
C67: x1+x59-y1_59 <=1 
C68: x1+x62 <=1 
C69: x1+x65 <=1 
C70: x1+x66-y1_66 <=1 
C71: x2+x3-y2_3 <=1 
C72: x2+x4 <=1 
C73: x2+x5-y2_5 <=1 
C74: x2+x6-y2_6 <=1 
C75: x2+x7-y2_7 <=1 
C76: x2+x8 <=1 
C77: x2+x9 <=1 
C78: x2+x12-y2_12 <=1 
C79: x2+x16 <=1 
C80: x2+x17 <=1 
C81: x2+x18-y2_18 <=1 
C82: x2+x19 <=1 
C83: x2+x20 <=1 
C84: x2+x22-y2_22 <=1 
C85: x2+x23 <=1 
C86: x2+x24-y2_24 <=1 
C87: x2+x26-y2_26 <=1 
C88: x2+x27 <=1 
C89: x2+x30-y2_30 <=1 
C90: x2+x31 <=1 
C91: x2+x33 <=1 
C92: x2+x36-y2_36 <=1 
C93: x2+x37-y2_37 <=1 
C94: x2+x38-y2_38 <=1 
C95: x2+x40 <=1 
C96: x2+x41 <=1 
C97: x2+x42 <=1 
C98: x2+x43 <=1 
C99: x2+x44 <=1 
C100: x2+x45-y2_45 <=1 
C101: x2+x46 <=1 
C102: x2+x48 <=1 
C103: x2+x49-y2_49 <=1 
C104: x2+x50-y2_50 <=1 
C105: x2+x51-y2_51 <=1 
C106: x2+x54 <=1 
C107: x2+x55 <=1 
C108: x2+x57 <=1 
C109: x2+x60-y2_60 <=1 
C110: x2+x65-y2_65 <=1 
C111: x2+x66-y2_66 <=1 
C112: x3+x5 <=1 
C113: x3+x6 <=1 
C114: x3+x7-y3_7 <=1 
C115: x3+x9-y3_9 <=1 
C116: x3+x11 <=1 
C117: x3+x12-y3_12 <=1 
C118: x3+x13-y3_13 <=1 
C119: x3+x15-y3_15 <=1 
C120: x3+x16-y3_16 <=1 
C121: x3+x17-y3_17 <=1 
C122: x3+x19-y3_19 <=1 
C123: x3+x24-y3_24 <=1 
C124: x3+x25 <=1 
C125: x3+x26-y3_26 <=1 
C126: x3+x27-y3_27 <=1 
C127: x3+x28 <=1 
C128: x3+x29 <=1 
C129: x3+x31-y3_31 <=1 
C130: x3+x32-y3_32 <=1 
C131: x3+x33 <=1 
C132: x3+x34 <=1 
C133: x3+x35-y3_35 <=1 
C134: x3+x37-y3_37 <=1 
C135: x3+x38-y3_38 <=1 
C136: x3+x40-y3_40 <=1 
C137: x3+x41 <=1 
C138: x3+x42-y3_42 <=1 
C139: x3+x43-y3_43 <=1 
C140: x3+x44-y3_44 <=1 
C141: x3+x46-y3_46 <=1 
C142: x3+x48 <=1 
C143: x3+x49-y3_49 <=1 
C144: x3+x54-y3_54 <=1 
C145: x3+x56 <=1 
C146: x3+x57 <=1 
C147: x3+x58 <=1 
C148: x3+x59 <=1 
C149: x3+x60-y3_60 <=1 
C150: x3+x63-y3_63 <=1 
C151: x3+x66 <=1 
C152: x4+x8 <=1 
C153: x4+x9-y4_9 <=1 
C154: x4+x10 <=1 
C155: x4+x11 <=1 
C156: x4+x13 <=1 
C157: x4+x16-y4_16 <=1 
C158: x4+x19 <=1 
C159: x4+x20 <=1 
C160: x4+x21-y4_21 <=1 
C161: x4+x24 <=1 
C162: x4+x26 <=1 
C163: x4+x28 <=1 
C164: x4+x30 <=1 
C165: x4+x35 <=1 
C166: x4+x36 <=1 
C167: x4+x37 <=1 
C168: x4+x38-y4_38 <=1 
C169: x4+x39 <=1 
C170: x4+x40 <=1 
C171: x4+x41 <=1 
C172: x4+x42 <=1 
C173: x4+x45-y4_45 <=1 
C174: x4+x46 <=1 
C175: x4+x48-y4_48 <=1 
C176: x4+x49-y4_49 <=1 
C177: x4+x52 <=1 
C178: x4+x53-y4_53 <=1 
C179: x4+x54-y4_54 <=1 
C180: x4+x55-y4_55 <=1 
C181: x4+x56 <=1 
C182: x4+x58 <=1 
C183: x4+x59 <=1 
C184: x4+x61-y4_61 <=1 
C185: x4+x62-y4_62 <=1 
C186: x4+x64 <=1 
C187: x4+x66-y4_66 <=1 
C188: x5+x6-y5_6 <=1 
C189: x5+x7-y5_7 <=1 
C190: x5+x8-y5_8 <=1 
C191: x5+x9 <=1 
C192: x5+x10 <=1 
C193: x5+x11 <=1 
C194: x5+x12-y5_12 <=1 
C195: x5+x14-y5_14 <=1 
C196: x5+x15-y5_15 <=1 
C197: x5+x16-y5_16 <=1 
C198: x5+x20-y5_20 <=1 
C199: x5+x23 <=1 
C200: x5+x24 <=1 
C201: x5+x25 <=1 
C202: x5+x26-y5_26 <=1 
C203: x5+x30-y5_30 <=1 
C204: x5+x32 <=1 
C205: x5+x34 <=1 
C206: x5+x35-y5_35 <=1 
C207: x5+x36-y5_36 <=1 
C208: x5+x37-y5_37 <=1 
C209: x5+x38-y5_38 <=1 
C210: x5+x41-y5_41 <=1 
C211: x5+x44-y5_44 <=1 
C212: x5+x49-y5_49 <=1 
C213: x5+x50-y5_50 <=1 
C214: x5+x51 <=1 
C215: x5+x53-y5_53 <=1 
C216: x5+x55 <=1 
C217: x5+x56 <=1 
C218: x5+x57 <=1 
C219: x5+x58-y5_58 <=1 
C220: x5+x59 <=1 
C221: x5+x62-y5_62 <=1 
C222: x5+x63-y5_63 <=1 
C223: x5+x66-y5_66 <=1 
C224: x6+x8 <=1 
C225: x6+x9-y6_9 <=1 
C226: x6+x10 <=1 
C227: x6+x11-y6_11 <=1 
C228: x6+x12 <=1 
C229: x6+x13-y6_13 <=1 
C230: x6+x15 <=1 
C231: x6+x18-y6_18 <=1 
C232: x6+x20 <=1 
C233: x6+x23 <=1 
C234: x6+x25-y6_25 <=1 
C235: x6+x27 <=1 
C236: x6+x28-y6_28 <=1 
C237: x6+x29-y6_29 <=1 
C238: x6+x30 <=1 
C239: x6+x32-y6_32 <=1 
C240: x6+x38 <=1 
C241: x6+x39-y6_39 <=1 
C242: x6+x40-y6_40 <=1 
C243: x6+x44 <=1 
C244: x6+x47 <=1 
C245: x6+x50-y6_50 <=1 
C246: x6+x52-y6_52 <=1 
C247: x6+x54 <=1 
C248: x6+x56-y6_56 <=1 
C249: x6+x57-y6_57 <=1 
C250: x6+x58 <=1 
C251: x6+x60 <=1 
C252: x6+x61 <=1 
C253: x6+x62 <=1 
C254: x6+x63 <=1 
C255: x6+x65 <=1 
C256: x6+x66 <=1 
C257: x7+x8-y7_8 <=1 
C258: x7+x9-y7_9 <=1 
C259: x7+x11-y7_11 <=1 
C260: x7+x13-y7_13 <=1 
C261: x7+x17 <=1 
C262: x7+x21-y7_21 <=1 
C263: x7+x22 <=1 
C264: x7+x23 <=1 
C265: x7+x24 <=1 
C266: x7+x25-y7_25 <=1 
C267: x7+x26-y7_26 <=1 
C268: x7+x27-y7_27 <=1 
C269: x7+x28-y7_28 <=1 
C270: x7+x29-y7_29 <=1 
C271: x7+x30 <=1 
C272: x7+x32 <=1 
C273: x7+x33-y7_33 <=1 
C274: x7+x36-y7_36 <=1 
C275: x7+x37-y7_37 <=1 
C276: x7+x38-y7_38 <=1 
C277: x7+x42 <=1 
C278: x7+x43-y7_43 <=1 
C279: x7+x46 <=1 
C280: x7+x48 <=1 
C281: x7+x49-y7_49 <=1 
C282: x7+x51-y7_51 <=1 
C283: x7+x52-y7_52 <=1 
C284: x7+x54 <=1 
C285: x7+x55-y7_55 <=1 
C286: x7+x56-y7_56 <=1 
C287: x7+x57 <=1 
C288: x7+x58 <=1 
C289: x7+x59-y7_59 <=1 
C290: x7+x64-y7_64 <=1 
C291: x7+x65 <=1 
C292: x7+x66-y7_66 <=1 
C293: x8+x11-y8_11 <=1 
C294: x8+x13-y8_13 <=1 
C295: x8+x14-y8_14 <=1 
C296: x8+x16 <=1 
C297: x8+x17-y8_17 <=1 
C298: x8+x18 <=1 
C299: x8+x19 <=1 
C300: x8+x20 <=1 
C301: x8+x21-y8_21 <=1 
C302: x8+x22 <=1 
C303: x8+x24 <=1 
C304: x8+x25 <=1 
C305: x8+x26 <=1 
C306: x8+x28 <=1 
C307: x8+x29-y8_29 <=1 
C308: x8+x31 <=1 
C309: x8+x32-y8_32 <=1 
C310: x8+x34-y8_34 <=1 
C311: x8+x36 <=1 
C312: x8+x37 <=1 
C313: x8+x38-y8_38 <=1 
C314: x8+x39 <=1 
C315: x8+x40 <=1 
C316: x8+x41 <=1 
C317: x8+x42 <=1 
C318: x8+x43-y8_43 <=1 
C319: x8+x44-y8_44 <=1 
C320: x8+x45 <=1 
C321: x8+x48 <=1 
C322: x8+x49-y8_49 <=1 
C323: x8+x50-y8_50 <=1 
C324: x8+x51-y8_51 <=1 
C325: x8+x52-y8_52 <=1 
C326: x8+x57-y8_57 <=1 
C327: x8+x58 <=1 
C328: x8+x59-y8_59 <=1 
C329: x8+x60 <=1 
C330: x8+x62 <=1 
C331: x9+x11-y9_11 <=1 
C332: x9+x13-y9_13 <=1 
C333: x9+x14 <=1 
C334: x9+x15 <=1 
C335: x9+x16-y9_16 <=1 
C336: x9+x17-y9_17 <=1 
C337: x9+x20 <=1 
C338: x9+x21 <=1 
C339: x9+x22-y9_22 <=1 
C340: x9+x23 <=1 
C341: x9+x25 <=1 
C342: x9+x26-y9_26 <=1 
C343: x9+x27-y9_27 <=1 
C344: x9+x29 <=1 
C345: x9+x30-y9_30 <=1 
C346: x9+x32-y9_32 <=1 
C347: x9+x37-y9_37 <=1 
C348: x9+x39 <=1 
C349: x9+x40-y9_40 <=1 
C350: x9+x41 <=1 
C351: x9+x42 <=1 
C352: x9+x44 <=1 
C353: x9+x47-y9_47 <=1 
C354: x9+x48 <=1 
C355: x9+x49-y9_49 <=1 
C356: x9+x55-y9_55 <=1 
C357: x9+x56 <=1 
C358: x9+x61 <=1 
C359: x9+x65 <=1 
C360: x9+x66-y9_66 <=1 
C361: x10+x11-y10_11 <=1 
C362: x10+x12-y10_12 <=1 
C363: x10+x14-y10_14 <=1 
C364: x10+x16-y10_16 <=1 
C365: x10+x17-y10_17 <=1 
C366: x10+x18 <=1 
C367: x10+x21-y10_21 <=1 
C368: x10+x22-y10_22 <=1 
C369: x10+x23 <=1 
C370: x10+x25 <=1 
C371: x10+x27 <=1 
C372: x10+x28-y10_28 <=1 
C373: x10+x29-y10_29 <=1 
C374: x10+x30-y10_30 <=1 
C375: x10+x31-y10_31 <=1 
C376: x10+x32-y10_32 <=1 
C377: x10+x33-y10_33 <=1 
C378: x10+x35 <=1 
C379: x10+x36-y10_36 <=1 
C380: x10+x37-y10_37 <=1 
C381: x10+x38 <=1 
C382: x10+x39 <=1 
C383: x10+x40 <=1 
C384: x10+x42 <=1 
C385: x10+x44-y10_44 <=1 
C386: x10+x45-y10_45 <=1 
C387: x10+x46 <=1 
C388: x10+x47-y10_47 <=1 
C389: x10+x48 <=1 
C390: x10+x49-y10_49 <=1 
C391: x10+x50-y10_50 <=1 
C392: x10+x51 <=1 
C393: x10+x53 <=1 
C394: x10+x54 <=1 
C395: x10+x56-y10_56 <=1 
C396: x10+x58-y10_58 <=1 
C397: x10+x59-y10_59 <=1 
C398: x10+x60 <=1 
C399: x10+x62 <=1 
C400: x10+x65-y10_65 <=1 
C401: x10+x66-y10_66 <=1 
C402: x11+x12-y11_12 <=1 
C403: x11+x14 <=1 
C404: x11+x15-y11_15 <=1 
C405: x11+x19-y11_19 <=1 
C406: x11+x20-y11_20 <=1 
C407: x11+x22 <=1 
C408: x11+x24-y11_24 <=1 
C409: x11+x26 <=1 
C410: x11+x27-y11_27 <=1 
C411: x11+x28-y11_28 <=1 
C412: x11+x29-y11_29 <=1 
C413: x11+x33 <=1 
C414: x11+x35 <=1 
C415: x11+x38 <=1 
C416: x11+x39-y11_39 <=1 
C417: x11+x41-y11_41 <=1 
C418: x11+x43 <=1 
C419: x11+x44 <=1 
C420: x11+x45-y11_45 <=1 
C421: x11+x46-y11_46 <=1 
C422: x11+x47 <=1 
C423: x11+x49-y11_49 <=1 
C424: x11+x50 <=1 
C425: x11+x51 <=1 
C426: x11+x53-y11_53 <=1 
C427: x11+x54-y11_54 <=1 
C428: x11+x56-y11_56 <=1 
C429: x11+x57 <=1 
C430: x11+x60 <=1 
C431: x11+x61 <=1 
C432: x11+x64 <=1 
C433: x11+x65-y11_65 <=1 
C434: x12+x14 <=1 
C435: x12+x16-y12_16 <=1 
C436: x12+x17-y12_17 <=1 
C437: x12+x19 <=1 
C438: x12+x21-y12_21 <=1 
C439: x12+x23-y12_23 <=1 
C440: x12+x25-y12_25 <=1 
C441: x12+x26-y12_26 <=1 
C442: x12+x27-y12_27 <=1 
C443: x12+x29-y12_29 <=1 
C444: x12+x30 <=1 
C445: x12+x31 <=1 
C446: x12+x34-y12_34 <=1 
C447: x12+x36-y12_36 <=1 
C448: x12+x39 <=1 
C449: x12+x40 <=1 
C450: x12+x41 <=1 
C451: x12+x44 <=1 
C452: x12+x45-y12_45 <=1 
C453: x12+x46-y12_46 <=1 
C454: x12+x47 <=1 
C455: x12+x49-y12_49 <=1 
C456: x12+x50-y12_50 <=1 
C457: x12+x51-y12_51 <=1 
C458: x12+x53-y12_53 <=1 
C459: x12+x54-y12_54 <=1 
C460: x12+x56-y12_56 <=1 
C461: x12+x57 <=1 
C462: x12+x58-y12_58 <=1 
C463: x12+x60-y12_60 <=1 
C464: x12+x61-y12_61 <=1 
C465: x12+x63-y12_63 <=1 
C466: x12+x64 <=1 
C467: x12+x65-y12_65 <=1 
C468: x12+x66 <=1 
C469: x13+x16 <=1 
C470: x13+x17-y13_17 <=1 
C471: x13+x20-y13_20 <=1 
C472: x13+x22-y13_22 <=1 
C473: x13+x23 <=1 
C474: x13+x24-y13_24 <=1 
C475: x13+x25 <=1 
C476: x13+x26-y13_26 <=1 
C477: x13+x27 <=1 
C478: x13+x30 <=1 
C479: x13+x32-y13_32 <=1 
C480: x13+x34-y13_34 <=1 
C481: x13+x38-y13_38 <=1 
C482: x13+x39-y13_39 <=1 
C483: x13+x42 <=1 
C484: x13+x43 <=1 
C485: x13+x44-y13_44 <=1 
C486: x13+x45-y13_45 <=1 
C487: x13+x47 <=1 
C488: x13+x48-y13_48 <=1 
C489: x13+x52-y13_52 <=1 
C490: x13+x53 <=1 
C491: x13+x54 <=1 
C492: x13+x55-y13_55 <=1 
C493: x13+x56 <=1 
C494: x13+x57 <=1 
C495: x13+x58 <=1 
C496: x13+x59-y13_59 <=1 
C497: x13+x60 <=1 
C498: x13+x61 <=1 
C499: x13+x63 <=1 
C500: x13+x64 <=1 
C501: x13+x66-y13_66 <=1 
C502: x14+x15-y14_15 <=1 
C503: x14+x16-y14_16 <=1 
C504: x14+x17 <=1 
C505: x14+x19-y14_19 <=1 
C506: x14+x21 <=1 
C507: x14+x23-y14_23 <=1 
C508: x14+x25 <=1 
C509: x14+x26 <=1 
C510: x14+x27 <=1 
C511: x14+x28-y14_28 <=1 
C512: x14+x29 <=1 
C513: x14+x30 <=1 
C514: x14+x31 <=1 
C515: x14+x33-y14_33 <=1 
C516: x14+x34 <=1 
C517: x14+x35 <=1 
C518: x14+x36 <=1 
C519: x14+x37-y14_37 <=1 
C520: x14+x38 <=1 
C521: x14+x39 <=1 
C522: x14+x40 <=1 
C523: x14+x41-y14_41 <=1 
C524: x14+x42 <=1 
C525: x14+x44 <=1 
C526: x14+x45-y14_45 <=1 
C527: x14+x46-y14_46 <=1 
C528: x14+x49 <=1 
C529: x14+x50 <=1 
C530: x14+x51-y14_51 <=1 
C531: x14+x52 <=1 
C532: x14+x54-y14_54 <=1 
C533: x14+x55 <=1 
C534: x14+x56-y14_56 <=1 
C535: x14+x59 <=1 
C536: x14+x60 <=1 
C537: x14+x61 <=1 
C538: x14+x62-y14_62 <=1 
C539: x14+x63-y14_63 <=1 
C540: x14+x64 <=1 
C541: x15+x16 <=1 
C542: x15+x17 <=1 
C543: x15+x19 <=1 
C544: x15+x21-y15_21 <=1 
C545: x15+x23-y15_23 <=1 
C546: x15+x25 <=1 
C547: x15+x26-y15_26 <=1 
C548: x15+x27-y15_27 <=1 
C549: x15+x28-y15_28 <=1 
C550: x15+x29-y15_29 <=1 
C551: x15+x30 <=1 
C552: x15+x32 <=1 
C553: x15+x37-y15_37 <=1 
C554: x15+x38-y15_38 <=1 
C555: x15+x39 <=1 
C556: x15+x42 <=1 
C557: x15+x43-y15_43 <=1 
C558: x15+x44 <=1 
C559: x15+x45 <=1 
C560: x15+x47 <=1 
C561: x15+x49-y15_49 <=1 
C562: x15+x51-y15_51 <=1 
C563: x15+x54-y15_54 <=1 
C564: x15+x56-y15_56 <=1 
C565: x15+x58 <=1 
C566: x15+x59 <=1 
C567: x15+x60-y15_60 <=1 
C568: x15+x62 <=1 
C569: x15+x64 <=1 
C570: x15+x65-y15_65 <=1 
C571: x16+x20-y16_20 <=1 
C572: x16+x25-y16_25 <=1 
C573: x16+x28 <=1 
C574: x16+x31 <=1 
C575: x16+x32-y16_32 <=1 
C576: x16+x34-y16_34 <=1 
C577: x16+x36-y16_36 <=1 
C578: x16+x37 <=1 
C579: x16+x39-y16_39 <=1 
C580: x16+x40-y16_40 <=1 
C581: x16+x50 <=1 
C582: x16+x51-y16_51 <=1 
C583: x16+x52 <=1 
C584: x16+x53 <=1 
C585: x16+x54 <=1 
C586: x16+x56-y16_56 <=1 
C587: x16+x57-y16_57 <=1 
C588: x16+x59-y16_59 <=1 
C589: x16+x60-y16_60 <=1 
C590: x16+x61 <=1 
C591: x16+x62 <=1 
C592: x16+x63 <=1 
C593: x16+x64 <=1 
C594: x17+x18-y17_18 <=1 
C595: x17+x19 <=1 
C596: x17+x20 <=1 
C597: x17+x23-y17_23 <=1 
C598: x17+x24 <=1 
C599: x17+x27 <=1 
C600: x17+x28 <=1 
C601: x17+x29 <=1 
C602: x17+x31 <=1 
C603: x17+x35-y17_35 <=1 
C604: x17+x39-y17_39 <=1 
C605: x17+x41 <=1 
C606: x17+x43 <=1 
C607: x17+x50-y17_50 <=1 
C608: x17+x51 <=1 
C609: x17+x52-y17_52 <=1 
C610: x17+x53 <=1 
C611: x17+x56 <=1 
C612: x17+x58 <=1 
C613: x17+x59-y17_59 <=1 
C614: x17+x60 <=1 
C615: x17+x62-y17_62 <=1 
C616: x17+x63-y17_63 <=1 
C617: x17+x64-y17_64 <=1 
C618: x17+x65-y17_65 <=1 
C619: x17+x66 <=1 
C620: x18+x19-y18_19 <=1 
C621: x18+x20-y18_20 <=1 
C622: x18+x22 <=1 
C623: x18+x23-y18_23 <=1 
C624: x18+x25-y18_25 <=1 
C625: x18+x26 <=1 
C626: x18+x27 <=1 
C627: x18+x29 <=1 
C628: x18+x30-y18_30 <=1 
C629: x18+x31 <=1 
C630: x18+x36 <=1 
C631: x18+x38-y18_38 <=1 
C632: x18+x39 <=1 
C633: x18+x40-y18_40 <=1 
C634: x18+x44-y18_44 <=1 
C635: x18+x45 <=1 
C636: x18+x46 <=1 
C637: x18+x47-y18_47 <=1 
C638: x18+x49 <=1 
C639: x18+x50-y18_50 <=1 
C640: x18+x51 <=1 
C641: x18+x52 <=1 
C642: x18+x53-y18_53 <=1 
C643: x18+x54-y18_54 <=1 
C644: x18+x55-y18_55 <=1 
C645: x18+x56 <=1 
C646: x18+x58-y18_58 <=1 
C647: x18+x59 <=1 
C648: x18+x60 <=1 
C649: x18+x61 <=1 
C650: x18+x63 <=1 
C651: x18+x66 <=1 
C652: x19+x20 <=1 
C653: x19+x21-y19_21 <=1 
C654: x19+x22-y19_22 <=1 
C655: x19+x23 <=1 
C656: x19+x24-y19_24 <=1 
C657: x19+x25 <=1 
C658: x19+x27 <=1 
C659: x19+x28-y19_28 <=1 
C660: x19+x29-y19_29 <=1 
C661: x19+x31-y19_31 <=1 
C662: x19+x33-y19_33 <=1 
C663: x19+x34-y19_34 <=1 
C664: x19+x35-y19_35 <=1 
C665: x19+x38-y19_38 <=1 
C666: x19+x39 <=1 
C667: x19+x41-y19_41 <=1 
C668: x19+x42 <=1 
C669: x19+x43 <=1 
C670: x19+x44-y19_44 <=1 
C671: x19+x46 <=1 
C672: x19+x51-y19_51 <=1 
C673: x19+x52-y19_52 <=1 
C674: x19+x53-y19_53 <=1 
C675: x19+x54-y19_54 <=1 
C676: x19+x55-y19_55 <=1 
C677: x19+x58-y19_58 <=1 
C678: x19+x59 <=1 
C679: x19+x60-y19_60 <=1 
C680: x19+x61-y19_61 <=1 
C681: x19+x62-y19_62 <=1 
C682: x19+x63 <=1 
C683: x19+x66 <=1 
C684: x20+x21 <=1 
C685: x20+x22 <=1 
C686: x20+x23 <=1 
C687: x20+x24 <=1 
C688: x20+x26-y20_26 <=1 
C689: x20+x27 <=1 
C690: x20+x30-y20_30 <=1 
C691: x20+x33 <=1 
C692: x20+x36-y20_36 <=1 
C693: x20+x38-y20_38 <=1 
C694: x20+x39 <=1 
C695: x20+x40 <=1 
C696: x20+x41 <=1 
C697: x20+x43 <=1 
C698: x20+x44 <=1 
C699: x20+x45-y20_45 <=1 
C700: x20+x46 <=1 
C701: x20+x51-y20_51 <=1 
C702: x20+x52-y20_52 <=1 
C703: x20+x54-y20_54 <=1 
C704: x20+x57 <=1 
C705: x20+x58-y20_58 <=1 
C706: x20+x59 <=1 
C707: x20+x61 <=1 
C708: x20+x62 <=1 
C709: x20+x65 <=1 
C710: x21+x24 <=1 
C711: x21+x26-y21_26 <=1 
C712: x21+x28 <=1 
C713: x21+x31-y21_31 <=1 
C714: x21+x32-y21_32 <=1 
C715: x21+x33-y21_33 <=1 
C716: x21+x35-y21_35 <=1 
C717: x21+x39-y21_39 <=1 
C718: x21+x40 <=1 
C719: x21+x41-y21_41 <=1 
C720: x21+x42 <=1 
C721: x21+x43-y21_43 <=1 
C722: x21+x44-y21_44 <=1 
C723: x21+x45 <=1 
C724: x21+x46-y21_46 <=1 
C725: x21+x48 <=1 
C726: x21+x50 <=1 
C727: x21+x51 <=1 
C728: x21+x52 <=1 
C729: x21+x53-y21_53 <=1 
C730: x21+x54 <=1 
C731: x21+x58 <=1 
C732: x21+x59-y21_59 <=1 
C733: x21+x61-y21_61 <=1 
C734: x21+x62 <=1 
C735: x21+x64 <=1 
C736: x22+x23-y22_23 <=1 
C737: x22+x24 <=1 
C738: x22+x26-y22_26 <=1 
C739: x22+x27 <=1 
C740: x22+x28 <=1 
C741: x22+x30-y22_30 <=1 
C742: x22+x31-y22_31 <=1 
C743: x22+x32-y22_32 <=1 
C744: x22+x33-y22_33 <=1 
C745: x22+x35-y22_35 <=1 
C746: x22+x38 <=1 
C747: x22+x39-y22_39 <=1 
C748: x22+x40 <=1 
C749: x22+x41-y22_41 <=1 
C750: x22+x42-y22_42 <=1 
C751: x22+x43 <=1 
C752: x22+x46 <=1 
C753: x22+x48-y22_48 <=1 
C754: x22+x51-y22_51 <=1 
C755: x22+x55 <=1 
C756: x22+x56 <=1 
C757: x22+x57 <=1 
C758: x22+x58-y22_58 <=1 
C759: x22+x60-y22_60 <=1 
C760: x22+x63 <=1 
C761: x22+x65-y22_65 <=1 
C762: x23+x24-y23_24 <=1 
C763: x23+x25-y23_25 <=1 
C764: x23+x27 <=1 
C765: x23+x28-y23_28 <=1 
C766: x23+x29 <=1 
C767: x23+x31 <=1 
C768: x23+x32-y23_32 <=1 
C769: x23+x35 <=1 
C770: x23+x38 <=1 
C771: x23+x39 <=1 
C772: x23+x40-y23_40 <=1 
C773: x23+x41-y23_41 <=1 
C774: x23+x42-y23_42 <=1 
C775: x23+x44 <=1 
C776: x23+x45 <=1 
C777: x23+x47-y23_47 <=1 
C778: x23+x48 <=1 
C779: x23+x49-y23_49 <=1 
C780: x23+x50 <=1 
C781: x23+x52-y23_52 <=1 
C782: x23+x53 <=1 
C783: x23+x54 <=1 
C784: x23+x55-y23_55 <=1 
C785: x23+x56-y23_56 <=1 
C786: x23+x57-y23_57 <=1 
C787: x23+x59 <=1 
C788: x23+x60-y23_60 <=1 
C789: x23+x61-y23_61 <=1 
C790: x23+x63 <=1 
C791: x23+x64-y23_64 <=1 
C792: x23+x66 <=1 
C793: x24+x26-y24_26 <=1 
C794: x24+x27 <=1 
C795: x24+x28-y24_28 <=1 
C796: x24+x29 <=1 
C797: x24+x32 <=1 
C798: x24+x35-y24_35 <=1 
C799: x24+x36 <=1 
C800: x24+x38 <=1 
C801: x24+x41 <=1 
C802: x24+x42 <=1 
C803: x24+x43 <=1 
C804: x24+x44 <=1 
C805: x24+x47-y24_47 <=1 
C806: x24+x48 <=1 
C807: x24+x50-y24_50 <=1 
C808: x24+x52 <=1 
C809: x24+x57-y24_57 <=1 
C810: x24+x58 <=1 
C811: x24+x59-y24_59 <=1 
C812: x24+x60-y24_60 <=1 
C813: x24+x61 <=1 
C814: x24+x62 <=1 
C815: x24+x64-y24_64 <=1 
C816: x24+x65-y24_65 <=1 
C817: x24+x66-y24_66 <=1 
C818: x25+x27-y25_27 <=1 
C819: x25+x29-y25_29 <=1 
C820: x25+x30-y25_30 <=1 
C821: x25+x32 <=1 
C822: x25+x34-y25_34 <=1 
C823: x25+x35-y25_35 <=1 
C824: x25+x36 <=1 
C825: x25+x38 <=1 
C826: x25+x44 <=1 
C827: x25+x46-y25_46 <=1 
C828: x25+x47 <=1 
C829: x25+x50 <=1 
C830: x25+x52 <=1 
C831: x25+x55-y25_55 <=1 
C832: x25+x56-y25_56 <=1 
C833: x25+x63 <=1 
C834: x26+x27-y26_27 <=1 
C835: x26+x28-y26_28 <=1 
C836: x26+x30 <=1 
C837: x26+x31 <=1 
C838: x26+x32 <=1 
C839: x26+x36 <=1 
C840: x26+x37 <=1 
C841: x26+x38-y26_38 <=1 
C842: x26+x39-y26_39 <=1 
C843: x26+x43-y26_43 <=1 
C844: x26+x46-y26_46 <=1 
C845: x26+x47 <=1 
C846: x26+x50-y26_50 <=1 
C847: x26+x51 <=1 
C848: x26+x52-y26_52 <=1 
C849: x26+x53 <=1 
C850: x26+x54-y26_54 <=1 
C851: x26+x55-y26_55 <=1 
C852: x26+x58-y26_58 <=1 
C853: x26+x59 <=1 
C854: x26+x60-y26_60 <=1 
C855: x26+x61 <=1 
C856: x26+x62-y26_62 <=1 
C857: x27+x31-y27_31 <=1 
C858: x27+x32 <=1 
C859: x27+x37-y27_37 <=1 
C860: x27+x38-y27_38 <=1 
C861: x27+x39 <=1 
C862: x27+x41-y27_41 <=1 
C863: x27+x42 <=1 
C864: x27+x43-y27_43 <=1 
C865: x27+x44 <=1 
C866: x27+x46 <=1 
C867: x27+x47 <=1 
C868: x27+x50 <=1 
C869: x27+x51 <=1 
C870: x27+x52 <=1 
C871: x27+x54 <=1 
C872: x27+x55 <=1 
C873: x27+x56-y27_56 <=1 
C874: x27+x57-y27_57 <=1 
C875: x27+x58 <=1 
C876: x27+x59-y27_59 <=1 
C877: x27+x62-y27_62 <=1 
C878: x27+x64-y27_64 <=1 
C879: x27+x66 <=1 
C880: x28+x30-y28_30 <=1 
C881: x28+x35 <=1 
C882: x28+x36-y28_36 <=1 
C883: x28+x40-y28_40 <=1 
C884: x28+x42 <=1 
C885: x28+x47-y28_47 <=1 
C886: x28+x48 <=1 
C887: x28+x51-y28_51 <=1 
C888: x28+x52-y28_52 <=1 
C889: x28+x54-y28_54 <=1 
C890: x28+x55 <=1 
C891: x28+x56 <=1 
C892: x28+x58-y28_58 <=1 
C893: x28+x60-y28_60 <=1 
C894: x28+x62 <=1 
C895: x28+x65 <=1 
C896: x28+x66 <=1 
C897: x29+x31-y29_31 <=1 
C898: x29+x33-y29_33 <=1 
C899: x29+x34 <=1 
C900: x29+x35 <=1 
C901: x29+x36-y29_36 <=1 
C902: x29+x37 <=1 
C903: x29+x38 <=1 
C904: x29+x39-y29_39 <=1 
C905: x29+x40-y29_40 <=1 
C906: x29+x41 <=1 
C907: x29+x43-y29_43 <=1 
C908: x29+x46-y29_46 <=1 
C909: x29+x47-y29_47 <=1 
C910: x29+x48 <=1 
C911: x29+x49-y29_49 <=1 
C912: x29+x50-y29_50 <=1 
C913: x29+x56 <=1 
C914: x29+x57 <=1 
C915: x29+x58-y29_58 <=1 
C916: x29+x59-y29_59 <=1 
C917: x29+x61-y29_61 <=1 
C918: x29+x62-y29_62 <=1 
C919: x30+x31 <=1 
C920: x30+x33 <=1 
C921: x30+x34 <=1 
C922: x30+x38-y30_38 <=1 
C923: x30+x42-y30_42 <=1 
C924: x30+x43-y30_43 <=1 
C925: x30+x44 <=1 
C926: x30+x45-y30_45 <=1 
C927: x30+x47 <=1 
C928: x30+x48-y30_48 <=1 
C929: x30+x49-y30_49 <=1 
C930: x30+x51-y30_51 <=1 
C931: x30+x52-y30_52 <=1 
C932: x30+x53-y30_53 <=1 
C933: x30+x54 <=1 
C934: x30+x55 <=1 
C935: x30+x58 <=1 
C936: x30+x60-y30_60 <=1 
C937: x30+x62 <=1 
C938: x30+x64 <=1 
C939: x30+x65 <=1 
C940: x31+x32 <=1 
C941: x31+x36-y31_36 <=1 
C942: x31+x37 <=1 
C943: x31+x39 <=1 
C944: x31+x41-y31_41 <=1 
C945: x31+x42 <=1 
C946: x31+x43 <=1 
C947: x31+x44-y31_44 <=1 
C948: x31+x47-y31_47 <=1 
C949: x31+x48 <=1 
C950: x31+x51 <=1 
C951: x31+x52-y31_52 <=1 
C952: x31+x54-y31_54 <=1 
C953: x31+x55-y31_55 <=1 
C954: x31+x57-y31_57 <=1 
C955: x31+x60-y31_60 <=1 
C956: x31+x65 <=1 
C957: x31+x66 <=1 
C958: x32+x33 <=1 
C959: x32+x34 <=1 
C960: x32+x35 <=1 
C961: x32+x36-y32_36 <=1 
C962: x32+x37 <=1 
C963: x32+x38 <=1 
C964: x32+x39-y32_39 <=1 
C965: x32+x40-y32_40 <=1 
C966: x32+x41-y32_41 <=1 
C967: x32+x43-y32_43 <=1 
C968: x32+x46-y32_46 <=1 
C969: x32+x47-y32_47 <=1 
C970: x32+x48-y32_48 <=1 
C971: x32+x50 <=1 
C972: x32+x52-y32_52 <=1 
C973: x32+x54-y32_54 <=1 
C974: x32+x55 <=1 
C975: x32+x56 <=1 
C976: x32+x58 <=1 
C977: x32+x59-y32_59 <=1 
C978: x32+x64-y32_64 <=1 
C979: x32+x65 <=1 
C980: x32+x66-y32_66 <=1 
C981: x33+x37 <=1 
C982: x33+x38 <=1 
C983: x33+x39-y33_39 <=1 
C984: x33+x41-y33_41 <=1 
C985: x33+x42-y33_42 <=1 
C986: x33+x43-y33_43 <=1 
C987: x33+x44 <=1 
C988: x33+x45 <=1 
C989: x33+x46-y33_46 <=1 
C990: x33+x50 <=1 
C991: x33+x51 <=1 
C992: x33+x53 <=1 
C993: x33+x54 <=1 
C994: x33+x55-y33_55 <=1 
C995: x33+x57-y33_57 <=1 
C996: x33+x58-y33_58 <=1 
C997: x33+x59-y33_59 <=1 
C998: x33+x61 <=1 
C999: x33+x62-y33_62 <=1 
C1000: x33+x64 <=1 
C1001: x33+x65-y33_65 <=1 
C1002: x33+x66 <=1 
C1003: x34+x41 <=1 
C1004: x34+x42-y34_42 <=1 
C1005: x34+x44-y34_44 <=1 
C1006: x34+x45-y34_45 <=1 
C1007: x34+x46-y34_46 <=1 
C1008: x34+x48 <=1 
C1009: x34+x50-y34_50 <=1 
C1010: x34+x54-y34_54 <=1 
C1011: x34+x55-y34_55 <=1 
C1012: x34+x56-y34_56 <=1 
C1013: x34+x57-y34_57 <=1 
C1014: x34+x60 <=1 
C1015: x34+x61-y34_61 <=1 
C1016: x34+x66-y34_66 <=1 
C1017: x35+x36-y35_36 <=1 
C1018: x35+x39 <=1 
C1019: x35+x42 <=1 
C1020: x35+x43-y35_43 <=1 
C1021: x35+x44-y35_44 <=1 
C1022: x35+x45 <=1 
C1023: x35+x46 <=1 
C1024: x35+x48 <=1 
C1025: x35+x49 <=1 
C1026: x35+x52 <=1 
C1027: x35+x54 <=1 
C1028: x35+x56 <=1 
C1029: x35+x57 <=1 
C1030: x35+x60 <=1 
C1031: x35+x64-y35_64 <=1 
C1032: x35+x66-y35_66 <=1 
C1033: x36+x37 <=1 
C1034: x36+x38 <=1 
C1035: x36+x39-y36_39 <=1 
C1036: x36+x41-y36_41 <=1 
C1037: x36+x42 <=1 
C1038: x36+x43-y36_43 <=1 
C1039: x36+x45-y36_45 <=1 
C1040: x36+x48-y36_48 <=1 
C1041: x36+x50 <=1 
C1042: x36+x52-y36_52 <=1 
C1043: x36+x53-y36_53 <=1 
C1044: x36+x54-y36_54 <=1 
C1045: x36+x55-y36_55 <=1 
C1046: x36+x57-y36_57 <=1 
C1047: x36+x59-y36_59 <=1 
C1048: x36+x62-y36_62 <=1 
C1049: x36+x63 <=1 
C1050: x36+x64-y36_64 <=1 
C1051: x36+x66 <=1 
C1052: x37+x38-y37_38 <=1 
C1053: x37+x39 <=1 
C1054: x37+x40-y37_40 <=1 
C1055: x37+x42 <=1 
C1056: x37+x46 <=1 
C1057: x37+x47-y37_47 <=1 
C1058: x37+x48 <=1 
C1059: x37+x50 <=1 
C1060: x37+x51-y37_51 <=1 
C1061: x37+x54-y37_54 <=1 
C1062: x37+x55-y37_55 <=1 
C1063: x37+x57-y37_57 <=1 
C1064: x37+x58-y37_58 <=1 
C1065: x37+x59 <=1 
C1066: x37+x60-y37_60 <=1 
C1067: x37+x64-y37_64 <=1 
C1068: x38+x39-y38_39 <=1 
C1069: x38+x40 <=1 
C1070: x38+x42-y38_42 <=1 
C1071: x38+x44-y38_44 <=1 
C1072: x38+x45-y38_45 <=1 
C1073: x38+x46-y38_46 <=1 
C1074: x38+x49 <=1 
C1075: x38+x52 <=1 
C1076: x38+x53 <=1 
C1077: x38+x54 <=1 
C1078: x38+x55 <=1 
C1079: x38+x56 <=1 
C1080: x38+x57-y38_57 <=1 
C1081: x38+x60 <=1 
C1082: x38+x61 <=1 
C1083: x38+x66-y38_66 <=1 
C1084: x39+x41 <=1 
C1085: x39+x42-y39_42 <=1 
C1086: x39+x43-y39_43 <=1 
C1087: x39+x44-y39_44 <=1 
C1088: x39+x45-y39_45 <=1 
C1089: x39+x47 <=1 
C1090: x39+x48 <=1 
C1091: x39+x49-y39_49 <=1 
C1092: x39+x50-y39_50 <=1 
C1093: x39+x54 <=1 
C1094: x39+x56-y39_56 <=1 
C1095: x39+x57-y39_57 <=1 
C1096: x39+x59 <=1 
C1097: x39+x62 <=1 
C1098: x39+x64 <=1 
C1099: x39+x66-y39_66 <=1 
C1100: x40+x41 <=1 
C1101: x40+x44 <=1 
C1102: x40+x45 <=1 
C1103: x40+x46-y40_46 <=1 
C1104: x40+x48 <=1 
C1105: x40+x49-y40_49 <=1 
C1106: x40+x50 <=1 
C1107: x40+x51 <=1 
C1108: x40+x53 <=1 
C1109: x40+x54-y40_54 <=1 
C1110: x40+x55-y40_55 <=1 
C1111: x40+x56-y40_56 <=1 
C1112: x40+x57 <=1 
C1113: x40+x58-y40_58 <=1 
C1114: x40+x60 <=1 
C1115: x40+x62-y40_62 <=1 
C1116: x40+x64-y40_64 <=1 
C1117: x40+x65 <=1 
C1118: x41+x43-y41_43 <=1 
C1119: x41+x45-y41_45 <=1 
C1120: x41+x47-y41_47 <=1 
C1121: x41+x48 <=1 
C1122: x41+x49 <=1 
C1123: x41+x50 <=1 
C1124: x41+x51-y41_51 <=1 
C1125: x41+x52 <=1 
C1126: x41+x54 <=1 
C1127: x41+x55-y41_55 <=1 
C1128: x41+x56 <=1 
C1129: x41+x57-y41_57 <=1 
C1130: x41+x58-y41_58 <=1 
C1131: x41+x60 <=1 
C1132: x41+x64-y41_64 <=1 
C1133: x42+x45-y42_45 <=1 
C1134: x42+x46-y42_46 <=1 
C1135: x42+x48 <=1 
C1136: x42+x49-y42_49 <=1 
C1137: x42+x53 <=1 
C1138: x42+x54 <=1 
C1139: x42+x55-y42_55 <=1 
C1140: x42+x57-y42_57 <=1 
C1141: x42+x58-y42_58 <=1 
C1142: x42+x59-y42_59 <=1 
C1143: x42+x60-y42_60 <=1 
C1144: x42+x61-y42_61 <=1 
C1145: x42+x62-y42_62 <=1 
C1146: x42+x64 <=1 
C1147: x42+x65-y42_65 <=1 
C1148: x42+x66-y42_66 <=1 
C1149: x43+x44 <=1 
C1150: x43+x45 <=1 
C1151: x43+x46-y43_46 <=1 
C1152: x43+x47 <=1 
C1153: x43+x48 <=1 
C1154: x43+x50 <=1 
C1155: x43+x51-y43_51 <=1 
C1156: x43+x52 <=1 
C1157: x43+x53-y43_53 <=1 
C1158: x43+x54-y43_54 <=1 
C1159: x43+x55-y43_55 <=1 
C1160: x43+x57-y43_57 <=1 
C1161: x43+x59 <=1 
C1162: x43+x62-y43_62 <=1 
C1163: x43+x65 <=1 
C1164: x44+x46 <=1 
C1165: x44+x48-y44_48 <=1 
C1166: x44+x49 <=1 
C1167: x44+x52 <=1 
C1168: x44+x53 <=1 
C1169: x44+x54 <=1 
C1170: x44+x55 <=1 
C1171: x44+x57-y44_57 <=1 
C1172: x44+x58-y44_58 <=1 
C1173: x44+x59 <=1 
C1174: x44+x60 <=1 
C1175: x44+x61-y44_61 <=1 
C1176: x44+x64 <=1 
C1177: x44+x65-y44_65 <=1 
C1178: x44+x66 <=1 
C1179: x45+x48 <=1 
C1180: x45+x49-y45_49 <=1 
C1181: x45+x50-y45_50 <=1 
C1182: x45+x51 <=1 
C1183: x45+x52 <=1 
C1184: x45+x53 <=1 
C1185: x45+x54 <=1 
C1186: x45+x56-y45_56 <=1 
C1187: x45+x58-y45_58 <=1 
C1188: x45+x59 <=1 
C1189: x45+x60-y45_60 <=1 
C1190: x45+x61 <=1 
C1191: x45+x62-y45_62 <=1 
C1192: x45+x63-y45_63 <=1 
C1193: x45+x64 <=1 
C1194: x45+x66-y45_66 <=1 
C1195: x46+x49-y46_49 <=1 
C1196: x46+x50 <=1 
C1197: x46+x52 <=1 
C1198: x46+x53 <=1 
C1199: x46+x54-y46_54 <=1 
C1200: x46+x56-y46_56 <=1 
C1201: x46+x57-y46_57 <=1 
C1202: x46+x59 <=1 
C1203: x46+x60 <=1 
C1204: x46+x63-y46_63 <=1 
C1205: x46+x66-y46_66 <=1 
C1206: x47+x48 <=1 
C1207: x47+x50 <=1 
C1208: x47+x51 <=1 
C1209: x47+x52 <=1 
C1210: x47+x53-y47_53 <=1 
C1211: x47+x55 <=1 
C1212: x47+x58-y47_58 <=1 
C1213: x47+x59-y47_59 <=1 
C1214: x47+x61 <=1 
C1215: x47+x62-y47_62 <=1 
C1216: x47+x63-y47_63 <=1 
C1217: x47+x66 <=1 
C1218: x48+x49 <=1 
C1219: x48+x50 <=1 
C1220: x48+x51 <=1 
C1221: x48+x52-y48_52 <=1 
C1222: x48+x54 <=1 
C1223: x48+x55-y48_55 <=1 
C1224: x48+x56 <=1 
C1225: x48+x58-y48_58 <=1 
C1226: x48+x59 <=1 
C1227: x48+x61-y48_61 <=1 
C1228: x48+x62 <=1 
C1229: x48+x63-y48_63 <=1 
C1230: x48+x65-y48_65 <=1 
C1231: x48+x66 <=1 
C1232: x49+x50 <=1 
C1233: x49+x51-y49_51 <=1 
C1234: x49+x52-y49_52 <=1 
C1235: x49+x53 <=1 
C1236: x49+x54 <=1 
C1237: x49+x59 <=1 
C1238: x49+x60-y49_60 <=1 
C1239: x49+x61 <=1 
C1240: x49+x62-y49_62 <=1 
C1241: x49+x63 <=1 
C1242: x49+x65 <=1 
C1243: x49+x66 <=1 
C1244: x50+x51-y50_51 <=1 
C1245: x50+x53-y50_53 <=1 
C1246: x50+x54 <=1 
C1247: x50+x55-y50_55 <=1 
C1248: x50+x60 <=1 
C1249: x50+x65 <=1 
C1250: x50+x66 <=1 
C1251: x51+x52-y51_52 <=1 
C1252: x51+x53 <=1 
C1253: x51+x54 <=1 
C1254: x51+x55 <=1 
C1255: x51+x56-y51_56 <=1 
C1256: x51+x57-y51_57 <=1 
C1257: x51+x58-y51_58 <=1 
C1258: x51+x59-y51_59 <=1 
C1259: x51+x60-y51_60 <=1 
C1260: x51+x63-y51_63 <=1 
C1261: x51+x65-y51_65 <=1 
C1262: x52+x53 <=1 
C1263: x52+x54 <=1 
C1264: x52+x58-y52_58 <=1 
C1265: x52+x59-y52_59 <=1 
C1266: x52+x61-y52_61 <=1 
C1267: x52+x62 <=1 
C1268: x52+x63 <=1 
C1269: x52+x66-y52_66 <=1 
C1270: x53+x54 <=1 
C1271: x53+x57-y53_57 <=1 
C1272: x53+x58 <=1 
C1273: x53+x60-y53_60 <=1 
C1274: x53+x62 <=1 
C1275: x53+x63 <=1 
C1276: x53+x65-y53_65 <=1 
C1277: x53+x66-y53_66 <=1 
C1278: x54+x55 <=1 
C1279: x54+x57 <=1 
C1280: x54+x59-y54_59 <=1 
C1281: x54+x60 <=1 
C1282: x54+x61 <=1 
C1283: x54+x62 <=1 
C1284: x54+x63 <=1 
C1285: x54+x65-y54_65 <=1 
C1286: x54+x66-y54_66 <=1 
C1287: x55+x58 <=1 
C1288: x55+x59 <=1 
C1289: x55+x60-y55_60 <=1 
C1290: x55+x61-y55_61 <=1 
C1291: x55+x62-y55_62 <=1 
C1292: x55+x64 <=1 
C1293: x55+x65-y55_65 <=1 
C1294: x56+x58 <=1 
C1295: x56+x59 <=1 
C1296: x56+x63-y56_63 <=1 
C1297: x56+x64-y56_64 <=1 
C1298: x56+x65 <=1 
C1299: x56+x66-y56_66 <=1 
C1300: x57+x58-y57_58 <=1 
C1301: x57+x59 <=1 
C1302: x57+x61-y57_61 <=1 
C1303: x57+x62 <=1 
C1304: x57+x63-y57_63 <=1 
C1305: x57+x65 <=1 
C1306: x58+x61-y58_61 <=1 
C1307: x58+x64 <=1 
C1308: x58+x65 <=1 
C1309: x58+x66-y58_66 <=1 
C1310: x59+x60 <=1 
C1311: x59+x62 <=1 
C1312: x59+x63 <=1 
C1313: x59+x65-y59_65 <=1 
C1314: x60+x61-y60_61 <=1 
C1315: x60+x63 <=1 
C1316: x60+x64-y60_64 <=1 
C1317: x60+x65 <=1 
C1318: x60+x66 <=1 
C1319: x61+x64-y61_64 <=1 
C1320: x61+x65 <=1 
C1321: x61+x66 <=1 
C1322: x62+x64-y62_64 <=1 
C1323: x62+x66 <=1 
C1324: x63+x65-y63_65 <=1 
C1325: x63+x66-y63_66 <=1 
C1326: x65+x66-y65_66 <=1 

binary
x0
x1
x2
x3
x4
x5
x6
x7
x8
x9
x10
x11
x12
x13
x14
x15
x16
x17
x18
x19
x20
x21
x22
x23
x24
x25
x26
x27
x28
x29
x30
x31
x32
x33
x34
x35
x36
x37
x38
x39
x40
x41
x42
x43
x44
x45
x46
x47
x48
x49
x50
x51
x52
x53
x54
x55
x56
x57
x58
x59
x60
x61
x62
x63
x64
x65
x66
